c ren 1 -> 1
c ren 2 -> 2
c ren 3 -> 3
c ren 5 -> 4
c ren 7 -> 5
c ren 8 -> 6
c ren 9 -> 7
c ren 10 -> 8
c ren 14 -> 9
c ren 15 -> 10
c ren 16 -> 11
c ren 21 -> 12
c ren 28 -> 13
c ren 31 -> 14
c ren 32 -> 15
c ren 33 -> 16
c ren 37 -> 17
c ren 41 -> 18
c ren 42 -> 19
c ren 44 -> 20
c ren 47 -> 21
c ren 48 -> 22
c ren 49 -> 23
c ren 52 -> 24
c ren 53 -> 25
c ren 56 -> 26
c ren 57 -> 27
c ren 61 -> 28
c ren 62 -> 29
p cnf 29 65
a 1 2 3 5 6 7 9 10 11 12 13 15 17 18 21 24 26 28 0
d 16 2 3 0
d 19 15 17 0
d 22 10 11 0
d 27 21 24 0
d 29 10 11 0
e 4 8 14 20 23 25 0
-1 2 3 -4 0
1 -2 -3 4 0
1 2 -3 -4 0
-1 -2 3 4 0
1 -2 3 -4 0
-1 -2 -3 -4 0
1 2 3 4 0
-1 2 -3 4 0
-6 7 8 0
6 -7 8 0
-6 -7 -8 0
6 7 -8 0
-13 14 -15 -16 -17 -20 -23 -25 26 27 28 29 0
-1 -4 -5 -8 -9 -10 11 -12 -13 -14 0
1 2 -4 -5 -8 -9 -10 11 12 -13 -14 0
-2 -3 -4 -5 -8 9 -10 -11 -12 -13 -14 0
1 2 -4 -5 -8 -9 10 -11 12 -13 -14 0
-1 -4 -5 -8 -9 10 -11 -12 -13 -14 0
-2 -3 -4 -5 -8 -9 -10 11 -12 -13 -14 0
1 3 -4 -5 -8 -9 -10 11 12 -13 -14 0
-2 -3 -4 5 8 -9 10 -11 -12 13 -14 0
1 3 -4 -5 -8 -9 10 -11 12 -13 -14 0
-2 -3 -4 -5 -8 -9 10 -11 -12 -13 -14 0
2 18 19 20 0
-13 14 15 16 -17 -20 -23 -25 26 27 -28 -29 0
2 -4 5 8 -9 10 -11 12 13 -14 0
3 18 19 20 0
1 2 -4 -5 -8 9 -10 -11 12 -13 -14 0
2 -4 5 8 -9 -10 11 12 13 -14 0
3 -4 5 8 -9 -10 11 12 13 -14 0
-13 14 -15 -16 -17 -20 -23 -25 -26 -27 28 29 0
-13 14 -15 -16 -17 -20 -23 -25 -26 -27 -28 -29 0
-1 -4 -5 -8 9 -10 -11 -12 -13 -14 0
-13 14 15 16 -17 -20 -23 -25 26 27 28 29 0
13 14 -15 -16 17 -20 -23 -25 -26 -27 28 29 0
13 14 -15 -16 17 -20 -23 -25 -26 -27 -28 -29 0
4 14 0
-2 -3 -18 20 0
1 3 -4 -5 -8 9 -10 -11 12 -13 -14 0
-18 -19 20 0
3 -4 5 8 -9 10 -11 12 13 -14 0
-21 -22 23 0
21 22 23 0
-18 -24 25 0
18 24 25 0
-13 14 -15 -16 -17 -20 -23 -25 26 27 -28 -29 0
-13 14 15 16 -17 -20 -23 -25 -26 -27 28 29 0
1 2 -4 -5 -8 9 10 11 12 -13 -14 0
-13 14 15 16 -17 -20 -23 -25 -26 -27 -28 -29 0
2 -4 5 8 9 -10 -11 12 13 -14 0
2 -4 5 8 9 10 11 12 13 -14 0
13 14 -15 -16 17 -20 -23 -25 26 27 28 29 0
13 14 15 16 17 -20 -23 -25 -26 -27 -28 -29 0
13 14 15 16 17 -20 -23 -25 26 27 28 29 0
3 -4 5 8 9 -10 -11 12 13 -14 0
1 3 -4 -5 -8 9 10 11 12 -13 -14 0
3 -4 5 8 9 10 11 12 13 -14 0
-1 -4 -5 -8 9 10 11 -12 -13 -14 0
13 14 15 16 17 -20 -23 -25 -26 -27 28 29 0
13 14 -15 -16 17 -20 -23 -25 26 27 -28 -29 0
-2 -3 -4 5 8 9 -10 -11 -12 13 -14 0
-2 -3 -4 -5 -8 9 10 11 -12 -13 -14 0
-2 -3 -4 5 8 9 10 11 -12 13 -14 0
13 14 15 16 17 -20 -23 -25 26 27 -28 -29 0
-2 -3 -4 5 8 -9 -10 11 -12 13 -14 0
